C
C CNF representation of pigeonhole problem for 1 pigeons and 1 holes
C
C Encoding:
C - Variable x_p,h is true iff pigeon p is in hole h
C - Every pigeon must be in some hole
C - No more than one pigeon in any hole
C
C Note: These clauses are unsatisfiable if n>m.
C
p cnf 1 1
1 0
